(set-logic ALL)
(declare-const k Int)
(declare-fun s () (_ BitVec k))
(declare-fun t () (_ BitVec k))
(assert (distinct (bvlshr s (bvnot (bvudiv (_ bv1 k) t))) (bvand s (bvudiv (_ bvk k) t))))
(check-sat)
